BAYES
256
2 2 2 2 2 2 2 2 2 2 2 2 2 2 2 2 2 2 2 2 2 2 2 2 2 2 2 2 2 2 2 2 2 2 2 2 2 2 2 2 2 2 2 2 2 2 2 2 2 2 2 2 2 2 2 2 2 2 2 2 2 2 2 2 2 2 2 2 2 2 2 2 2 2 2 2 2 2 2 2 2 2 2 2 2 2 2 2 2 2 2 2 2 2 2 2 2 2 2 2 2 2 2 2 2 2 2 2 2 2 2 2 2 2 2 2 2 2 2 2 2 2 2 2 2 2 2 2 2 2 2 2 2 2 2 2 2 2 2 2 2 2 2 2 2 2 2 2 2 2 2 2 2 2 2 2 2 2 2 2 2 2 2 2 2 2 2 2 2 2 2 2 2 2 2 2 2 2 2 2 2 2 2 2 2 2 2 2 2 2 2 2 2 2 2 2 2 2 2 2 2 2 2 2 2 2 2 2 2 2 2 2 2 2 2 2 2 2 2 2 2 2 2 2 2 2 2 2 2 2 2 2 2 2 2 2 2 2 2 2 2 2 2 2 2 2 2 2 2 2 2 2 2 2 2 2
256
1 0
2 0 1
2 1 2
2 2 3
2 3 4
2 4 5
2 5 6
2 6 7
2 7 8
2 8 9
2 9 10
2 10 11
2 11 12
2 12 13
2 13 14
2 14 15
2 0 16
3 1 16 17
3 2 17 18
3 3 18 19
3 4 19 20
3 5 20 21
3 6 21 22
3 7 22 23
3 8 23 24
3 9 24 25
3 10 25 26
3 11 26 27
3 12 27 28
3 13 28 29
3 14 29 30
3 15 30 31
2 16 32
3 17 32 33
3 18 33 34
3 19 34 35
3 20 35 36
3 21 36 37
3 22 37 38
3 23 38 39
3 24 39 40
3 25 40 41
3 26 41 42
3 27 42 43
3 28 43 44
3 29 44 45
3 30 45 46
3 31 46 47
2 32 48
3 33 48 49
3 34 49 50
3 35 50 51
3 36 51 52
3 37 52 53
3 38 53 54
3 39 54 55
3 40 55 56
3 41 56 57
3 42 57 58
3 43 58 59
3 44 59 60
3 45 60 61
3 46 61 62
3 47 62 63
2 48 64
3 49 64 65
3 50 65 66
3 51 66 67
3 52 67 68
3 53 68 69
3 54 69 70
3 55 70 71
3 56 71 72
3 57 72 73
3 58 73 74
3 59 74 75
3 60 75 76
3 61 76 77
3 62 77 78
3 63 78 79
2 64 80
3 65 80 81
3 66 81 82
3 67 82 83
3 68 83 84
3 69 84 85
3 70 85 86
3 71 86 87
3 72 87 88
3 73 88 89
3 74 89 90
3 75 90 91
3 76 91 92
3 77 92 93
3 78 93 94
3 79 94 95
2 80 96
3 81 96 97
3 82 97 98
3 83 98 99
3 84 99 100
3 85 100 101
3 86 101 102
3 87 102 103
3 88 103 104
3 89 104 105
3 90 105 106
3 91 106 107
3 92 107 108
3 93 108 109
3 94 109 110
3 95 110 111
2 96 112
3 97 112 113
3 98 113 114
3 99 114 115
3 100 115 116
3 101 116 117
3 102 117 118
3 103 118 119
3 104 119 120
3 105 120 121
3 106 121 122
3 107 122 123
3 108 123 124
3 109 124 125
3 110 125 126
3 111 126 127
2 112 128
3 113 128 129
3 114 129 130
3 115 130 131
3 116 131 132
3 117 132 133
3 118 133 134
3 119 134 135
3 120 135 136
3 121 136 137
3 122 137 138
3 123 138 139
3 124 139 140
3 125 140 141
3 126 141 142
3 127 142 143
2 128 144
3 129 144 145
3 130 145 146
3 131 146 147
3 132 147 148
3 133 148 149
3 134 149 150
3 135 150 151
3 136 151 152
3 137 152 153
3 138 153 154
3 139 154 155
3 140 155 156
3 141 156 157
3 142 157 158
3 143 158 159
2 144 160
3 145 160 161
3 146 161 162
3 147 162 163
3 148 163 164
3 149 164 165
3 150 165 166
3 151 166 167
3 152 167 168
3 153 168 169
3 154 169 170
3 155 170 171
3 156 171 172
3 157 172 173
3 158 173 174
3 159 174 175
2 160 176
3 161 176 177
3 162 177 178
3 163 178 179
3 164 179 180
3 165 180 181
3 166 181 182
3 167 182 183
3 168 183 184
3 169 184 185
3 170 185 186
3 171 186 187
3 172 187 188
3 173 188 189
3 174 189 190
3 175 190 191
2 176 192
3 177 192 193
3 178 193 194
3 179 194 195
3 180 195 196
3 181 196 197
3 182 197 198
3 183 198 199
3 184 199 200
3 185 200 201
3 186 201 202
3 187 202 203
3 188 203 204
3 189 204 205
3 190 205 206
3 191 206 207
2 192 208
3 193 208 209
3 194 209 210
3 195 210 211
3 196 211 212
3 197 212 213
3 198 213 214
3 199 214 215
3 200 215 216
3 201 216 217
3 202 217 218
3 203 218 219
3 204 219 220
3 205 220 221
3 206 221 222
3 207 222 223
2 208 224
3 209 224 225
3 210 225 226
3 211 226 227
3 212 227 228
3 213 228 229
3 214 229 230
3 215 230 231
3 216 231 232
3 217 232 233
3 218 233 234
3 219 234 235
3 220 235 236
3 221 236 237
3 222 237 238
3 223 238 239
2 224 240
3 225 240 241
3 226 241 242
3 227 242 243
3 228 243 244
3 229 244 245
3 230 245 246
3 231 246 247
3 232 247 248
3 233 248 249
3 234 249 250
3 235 250 251
3 236 251 252
3 237 252 253
3 238 253 254
3 239 254 255
2
0 1
4
0 1 0 1
4
0 1 1 0
4
0 1 0 1
4
0 1 0 1
4
1 0 1 0
4
1 0 0 1
4
0 1 1 0
4
1 0 1 0
4
1 0 0 1
4
1 0 0 1
4
1 0 1 0
4
0 1 1 0
4
1 0 0 1
4
0 1 1 0
4
0.44387449949977903 0.5561255005002209 0.14273027312912837 0.8572697268708717
4
1 0 0 1
8
0 1 1 0 0 1 0 1
8
1 0 1 0 1 0 1 0
8
1 0 0 1 0 1 0 1
8
1 0 0 1 1 0 0 1
8
0.20884635596008216 0.7911536440399178 0.06468002025233387 0.9353199797476661 0.5030914480789305 0.4969085519210695 0.7307961049578492 0.26920389504215075
8
0 1 1 0 1 0 0 1
8
0 1 0 1 1 0 0 1
8
0 1 1 0 1 0 1 0
8
0 1 1 0 0 1 1 0
8
0.5100686352307645 0.48993136476923554 0.46432319939497657 0.5356768006050234 0.3790002187704424 0.6209997812295576 0.4842175614202318 0.5157824385797682
8
0 1 0 1 1 0 1 0
8
0 1 0 1 1 0 1 0
8
0 1 0 1 1 0 0 1
8
0 1 0 1 1 0 1 0
8
0 1 1 0 0 1 1 0
4
1 0 0 1
8
0 1 1 0 1 0 1 0
8
1 0 1 0 0 1 1 0
8
1 0 0 1 1 0 1 0
8
1 0 1 0 0 1 1 0
8
0 1 0 1 0 1 0 1
8
1 0 1 0 0 1 1 0
8
0.42337836112081406 0.576621638879186 0.1718174899278294 0.8281825100721706 0.6210613715917801 0.3789386284082199 0.9200262708521977 0.07997372914780236
8
0 1 0 1 1 0 0 1
8
1 0 0 1 0 1 0 1
8
1 0 0 1 1 0 0 1
8
1 0 0 1 0 1 0 1
8
0 1 1 0 1 0 1 0
8
0 1 1 0 1 0 1 0
8
0 1 0 1 1 0 0 1
8
0.8783430512015667 0.12165694879843326 0.9219697113655122 0.07803028863448778 0.5251252925717472 0.47487470742825283 0.22610294948681114 0.7738970505131889
4
1 0 0 1
8
0 1 1 0 1 0 0 1
8
1 0 1 0 0 1 0 1
8
1 0 1 0 1 0 1 0
8
0 1 1 0 1 0 1 0
8
1 0 1 0 0 1 1 0
8
1 0 1 0 1 0 0 1
8
0 1 1 0 0 1 1 0
8
1 0 1 0 0 1 1 0
8
1 0 1 0 1 0 0 1
8
0.9083752870868902 0.09162471291310977 0.9568793920006143 0.043120607999385704 0.33012367926644187 0.6698763207335581 0.9289159965490236 0.07108400345097647
8
0 1 0 1 1 0 1 0
8
0 1 0 1 0 1 0 1
8
1 0 1 0 0 1 1 0
8
0 1 0 1 1 0 1 0
8
0.6163928132259366 0.3836071867740633 0.2947930785535694 0.7052069214464306 0.7098831821942168 0.29011681780578324 0.6582381394178538 0.34176186058214625
4
1 0 0 1
8
0 1 0 1 1 0 1 0
8
0 1 1 0 1 0 1 0
8
0 1 0 1 0 1 0 1
8
0 1 0 1 1 0 1 0
8
0 1 1 0 0 1 0 1
8
1 0 0 1 1 0 0 1
8
1 0 0 1 1 0 1 0
8
1 0 1 0 1 0 1 0
8
0 1 1 0 1 0 1 0
8
0.4465920601907075 0.5534079398092925 0.5248941018132866 0.47510589818671345 0.5052955913792626 0.49470440862073733 0.6173840019124573 0.3826159980875426
8
1 0 1 0 1 0 0 1
8
0 1 1 0 1 0 1 0
8
1 0 0 1 1 0 1 0
8
1 0 0 1 1 0 0 1
8
1 0 1 0 1 0 1 0
4
0 1 1 0
8
1 0 0 1 1 0 0 1
8
1 0 0 1 0 1 1 0
8
1 0 1 0 0 1 1 0
8
1 0 1 0 0 1 0 1
8
1 0 1 0 0 1 0 1
8
0 1 1 0 0 1 0 1
8
0 1 1 0 1 0 1 0
8
0 1 1 0 1 0 1 0
8
1 0 1 0 1 0 1 0
8
1 0 1 0 0 1 0 1
8
1 0 1 0 0 1 0 1
8
0 1 0 1 0 1 0 1
8
1 0 0 1 0 1 0 1
8
1 0 0 1 0 1 0 1
8
0 1 0 1 0 1 1 0
4
1 0 0 1
8
0 1 0 1 1 0 0 1
8
0 1 1 0 1 0 0 1
8
0 1 0 1 0 1 0 1
8
0 1 1 0 1 0 0 1
8
1 0 1 0 1 0 0 1
8
1 0 0 1 0 1 1 0
8
0 1 1 0 1 0 0 1
8
1 0 1 0 1 0 1 0
8
1 0 0 1 1 0 1 0
8
0 1 0 1 0 1 0 1
8
1 0 0 1 1 0 0 1
8
0 1 0 1 0 1 1 0
8
1 0 0 1 1 0 0 1
8
0 1 0 1 0 1 0 1
8
1 0 0 1 0 1 1 0
4
1 0 0 1
8
0.9523352846121292 0.04766471538787061 0.8184991617134988 0.18150083828650135 0.20170147399392738 0.7982985260060727 0.539598712294265 0.460401287705735
8
0.5196596648599727 0.48034033514002733 0.7286633784590449 0.271336621540955 0.10460992517575457 0.8953900748242454 0.48161170193916825 0.5183882980608318
8
0 1 1 0 0 1 0 1
8
0 1 1 0 1 0 1 0
8
1 0 0 1 0 1 1 0
8
0 1 1 0 1 0 0 1
8
0 1 0 1 0 1 1 0
8
0 1 0 1 0 1 0 1
8
0 1 0 1 0 1 0 1
8
1 0 1 0 1 0 1 0
8
0 1 1 0 1 0 1 0
8
1 0 0 1 0 1 0 1
8
0 1 0 1 0 1 0 1
8
0 1 0 1 0 1 0 1
8
0 1 1 0 1 0 0 1
4
1 0 0 1
8
0 1 0 1 1 0 1 0
8
0 1 1 0 0 1 1 0
8
0 1 1 0 0 1 1 0
8
0 1 0 1 1 0 0 1
8
0.5011357635210711 0.4988642364789288 0.47527390921299534 0.5247260907870047 0.4811241133582271 0.518875886641773 0.748635575965002 0.25136442403499804
8
0 1 0 1 1 0 0 1
8
1 0 0 1 1 0 1 0
8
0 1 0 1 0 1 0 1
8
1 0 0 1 0 1 0 1
8
1 0 1 0 1 0 0 1
8
0 1 1 0 1 0 1 0
8
0.21174581449803004 0.78825418550197 0.4695616099097106 0.5304383900902894 0.9412812119952261 0.058718788004773884 0.5224174121547734 0.47758258784522667
8
0 1 1 0 0 1 0 1
8
0 1 1 0 1 0 0 1
8
0.6535957564730003 0.3464042435269998 0.24284078331599296 0.757159216684007 0.8825364670022712 0.11746353299772884 0.9031008380210459 0.09689916197895412
4
0 1 0 1
8
0.6559967365317709 0.344003263468229 0.5143232487766897 0.4856767512233104 0.6088478113945084 0.39115218860549156 0.04734400719236859 0.9526559928076314
8
0 1 1 0 1 0 1 0
8
0 1 0 1 0 1 0 1
8
1 0 1 0 1 0 1 0
8
0.5395479349045728 0.4604520650954272 0.2853512579010253 0.7146487420989747 0.39094307523887795 0.6090569247611222 0.9204122634384977 0.0795877365615023
8
0 1 1 0 0 1 1 0
8
0 1 0 1 1 0 0 1
8
0.6799466687434218 0.3200533312565781 0.6197065996533024 0.3802934003466976 0.4271856938141059 0.572814306185894 0.46263824317799424 0.5373617568220058
8
0 1 0 1 0 1 1 0
8
0 1 0 1 0 1 0 1
8
0 1 1 0 1 0 0 1
8
0 1 1 0 1 0 0 1
8
0 1 1 0 1 0 1 0
8
1 0 0 1 1 0 1 0
8
1 0 0 1 0 1 1 0
4
0.24892154531506883 0.7510784546849312 0.07699387330766799 0.9230061266923318
8
1 0 1 0 0 1 0 1
8
0 1 1 0 0 1 1 0
8
1 0 0 1 1 0 0 1
8
0.5801762552526577 0.4198237447473424 0.45480426131628765 0.5451957386837124 0.7179691053092627 0.28203089469073733 0.6598954132247765 0.3401045867752235
8
0 1 1 0 0 1 1 0
8
1 0 1 0 1 0 0 1
8
0.4757529482211746 0.5242470517788255 0.28832307394965473 0.7116769260503452 0.641663225691218 0.35833677430878197 0.5145449232931579 0.4854550767068421
8
0 1 1 0 1 0 0 1
8
0 1 1 0 0 1 0 1
8
1 0 1 0 0 1 0 1
8
0 1 1 0 0 1 0 1
8
0 1 0 1 0 1 1 0
8
1 0 0 1 1 0 1 0
8
1 0 0 1 0 1 0 1
8
0 1 1 0 1 0 1 0
4
0 1 0 1
8
1 0 0 1 1 0 0 1
8
1 0 1 0 1 0 0 1
8
1 0 0 1 0 1 0 1
8
0 1 1 0 1 0 1 0
8
0 1 0 1 1 0 0 1
8
0 1 1 0 0 1 0 1
8
1 0 0 1 1 0 1 0
8
0 1 0 1 1 0 1 0
8
0 1 0 1 0 1 1 0
8
0 1 1 0 1 0 1 0
8
1 0 0 1 0 1 0 1
8
1 0 0 1 1 0 0 1
8
0 1 0 1 0 1 0 1
8
1 0 1 0 0 1 0 1
8
0 1 1 0 0 1 0 1
4
0 1 0 1
8
1 0 1 0 0 1 1 0
8
1 0 0 1 0 1 1 0
8
1 0 1 0 1 0 0 1
8
0 1 0 1 0 1 1 0
8
0 1 1 0 0 1 1 0
8
1 0 1 0 0 1 1 0
8
1 0 0 1 0 1 1 0
8
0 1 1 0 0 1 0 1
8
0 1 1 0 0 1 1 0
8
0 1 1 0 0 1 1 0
8
0 1 0 1 1 0 1 0
8
0 1 0 1 0 1 1 0
8
1 0 0 1 1 0 1 0
8
1 0 1 0 0 1 1 0
8
1 0 1 0 1 0 1 0
4
0 1 1 0
8
0 1 1 0 0 1 0 1
8
0 1 0 1 1 0 1 0
8
0.6665475647899828 0.3334524352100171 0.05516607274422449 0.9448339272557755 0.4926852944442148 0.5073147055557852 0.3756202306126522 0.6243797693873477
8
0 1 0 1 1 0 1 0
8
0 1 1 0 1 0 0 1
8
0.6657854083604421 0.3342145916395579 0.18367873769865145 0.8163212623013486 0.164788274305056 0.835211725694944 0.7736889030773565 0.2263110969226435
8
1 0 1 0 0 1 1 0
8
1 0 1 0 1 0 1 0
8
0 1 1 0 0 1 0 1
8
1 0 0 1 0 1 0 1
8
1 0 0 1 1 0 0 1
8
0 1 0 1 0 1 1 0
8
0 1 1 0 1 0 0 1
8
0 1 1 0 1 0 0 1
8
0 1 0 1 1 0 1 0
4
0 1 1 0
8
0 1 1 0 0 1 0 1
8
1 0 0 1 1 0 0 1
8
0 1 1 0 0 1 1 0
8
0 1 0 1 0 1 1 0
8
0 1 0 1 1 0 0 1
8
1 0 0 1 0 1 1 0
8
0.5132380857711204 0.4867619142288796 0.05746190104195226 0.9425380989580477 0.7777498309149277 0.22225016908507236 0.9263761606199108 0.07362383938008919
8
0.4696504974278391 0.5303495025721608 0.5967880544692411 0.4032119455307589 0.8792597580845978 0.1207402419154023 0.5118998748981545 0.48810012510184553
8
0 1 0 1 1 0 0 1
8
0 1 1 0 0 1 0 1
8
0 1 1 0 0 1 1 0
8
0 1 0 1 0 1 0 1
8
0.5858896208742753 0.4141103791257247 0.15007662011649703 0.849923379883503 0.6518120544139023 0.3481879455860976 0.6228916313254286 0.3771083686745713
8
0 1 1 0 1 0 1 0
8
0.556397998823727 0.443602001176273 0.5878317969124492 0.41216820308755087 0.7825035494554926 0.2174964505445074 0.9286173815820089 0.07138261841799115
4
1 0 0 1
8
0 1 1 0 0 1 0 1
8
0 1 1 0 1 0 0 1
8
0 1 1 0 0 1 0 1
8
1 0 0 1 0 1 0 1
8
1 0 1 0 1 0 1 0
8
0 1 1 0 1 0 0 1
8
0.5482914098054841 0.451708590194516 0.6613781696130812 0.3386218303869189 0.1432213635234278 0.8567786364765723 0.37890097219002905 0.6210990278099711
8
0 1 0 1 1 0 0 1
8
0 1 0 1 1 0 0 1
8
0 1 0 1 0 1 1 0
8
0 1 0 1 0 1 1 0
8
0 1 1 0 0 1 0 1
8
1 0 1 0 0 1 0 1
8
0 1 0 1 1 0 0 1
8
1 0 1 0 1 0 1 0
